; benchmark generated from python API
(set-info :status unknown)
(declare-fun cell_1_1 () Int)
(declare-fun cell_1_6 () Int)
(declare-fun cell_2_3 () Int)
(declare-fun cell_2_4 () Int)
(declare-fun cell_3_7 () Int)
(declare-fun cell_3_8 () Int)
(declare-fun cell_4_2 () Int)
(declare-fun cell_4_9 () Int)
(declare-fun cell_5_4 () Int)
(declare-fun cell_6_8 () Int)
(declare-fun cell_7_9 () Int)
(declare-fun cell_8_5 () Int)
(declare-fun cell_9_1 () Int)
(declare-fun cell_2_1 () Int)
(declare-fun cell_3_1 () Int)
(declare-fun cell_4_1 () Int)
(declare-fun cell_5_1 () Int)
(declare-fun cell_6_1 () Int)
(declare-fun cell_7_1 () Int)
(declare-fun cell_8_1 () Int)
(declare-fun cell_1_2 () Int)
(declare-fun cell_2_2 () Int)
(declare-fun cell_3_2 () Int)
(declare-fun cell_5_2 () Int)
(declare-fun cell_6_2 () Int)
(declare-fun cell_7_2 () Int)
(declare-fun cell_8_2 () Int)
(declare-fun cell_9_2 () Int)
(declare-fun cell_1_3 () Int)
(declare-fun cell_3_3 () Int)
(declare-fun cell_4_3 () Int)
(declare-fun cell_5_3 () Int)
(declare-fun cell_6_3 () Int)
(declare-fun cell_7_3 () Int)
(declare-fun cell_8_3 () Int)
(declare-fun cell_9_3 () Int)
(declare-fun cell_1_4 () Int)
(declare-fun cell_3_4 () Int)
(declare-fun cell_4_4 () Int)
(declare-fun cell_6_4 () Int)
(declare-fun cell_7_4 () Int)
(declare-fun cell_8_4 () Int)
(declare-fun cell_9_4 () Int)
(declare-fun cell_1_5 () Int)
(declare-fun cell_2_5 () Int)
(declare-fun cell_3_5 () Int)
(declare-fun cell_4_5 () Int)
(declare-fun cell_5_5 () Int)
(declare-fun cell_6_5 () Int)
(declare-fun cell_7_5 () Int)
(declare-fun cell_9_5 () Int)
(declare-fun cell_2_6 () Int)
(declare-fun cell_3_6 () Int)
(declare-fun cell_4_6 () Int)
(declare-fun cell_5_6 () Int)
(declare-fun cell_6_6 () Int)
(declare-fun cell_7_6 () Int)
(declare-fun cell_8_6 () Int)
(declare-fun cell_9_6 () Int)
(declare-fun cell_1_7 () Int)
(declare-fun cell_2_7 () Int)
(declare-fun cell_4_7 () Int)
(declare-fun cell_5_7 () Int)
(declare-fun cell_6_7 () Int)
(declare-fun cell_7_7 () Int)
(declare-fun cell_8_7 () Int)
(declare-fun cell_9_7 () Int)
(declare-fun cell_1_8 () Int)
(declare-fun cell_2_8 () Int)
(declare-fun cell_4_8 () Int)
(declare-fun cell_5_8 () Int)
(declare-fun cell_7_8 () Int)
(declare-fun cell_8_8 () Int)
(declare-fun cell_9_8 () Int)
(declare-fun cell_1_9 () Int)
(declare-fun cell_2_9 () Int)
(declare-fun cell_3_9 () Int)
(declare-fun cell_5_9 () Int)
(declare-fun cell_6_9 () Int)
(declare-fun cell_8_9 () Int)
(declare-fun cell_9_9 () Int)
(assert
 (= cell_1_1 2))
(assert
 (= cell_1_6 1))
(assert
 (= cell_2_3 1))
(assert
 (= cell_2_4 2))
(assert
 (= cell_3_7 1))
(assert
 (= cell_3_8 2))
(assert
 (= cell_4_2 1))
(assert
 (= cell_4_9 2))
(assert
 (= cell_5_4 1))
(assert
 (= cell_6_8 1))
(assert
 (= cell_7_9 1))
(assert
 (= cell_8_5 1))
(assert
 (= cell_9_1 1))
(assert
 (let (($x7102 (= cell_1_1 2)))
 (or (= cell_1_1 1) $x7102 (= cell_1_1 3) (= cell_1_1 4) (= cell_1_1 5) (= cell_1_1 6) (= cell_1_1 7) (= cell_1_1 8) (= cell_1_1 9))))
(assert
 (let (($x7787 (= cell_2_1 9)))
 (let (($x2681 (= cell_2_1 8)))
 (let (($x5287 (= cell_2_1 7)))
 (let (($x4835 (= cell_2_1 6)))
 (let (($x3247 (= cell_2_1 5)))
 (let (($x84 (= cell_2_1 4)))
 (let (($x8340 (= cell_2_1 3)))
 (let (($x346 (= cell_2_1 2)))
 (let (($x3085 (= cell_2_1 1)))
 (or $x3085 $x346 $x8340 $x84 $x3247 $x4835 $x5287 $x2681 $x7787)))))))))))
(assert
 (let (($x115 (= cell_3_1 9)))
 (let (($x8335 (= cell_3_1 8)))
 (let (($x8234 (= cell_3_1 7)))
 (let (($x8426 (= cell_3_1 6)))
 (let (($x9472 (= cell_3_1 5)))
 (let (($x2624 (= cell_3_1 4)))
 (let (($x3185 (= cell_3_1 3)))
 (let (($x941 (= cell_3_1 2)))
 (let (($x258 (= cell_3_1 1)))
 (or $x258 $x941 $x3185 $x2624 $x9472 $x8426 $x8234 $x8335 $x115)))))))))))
(assert
 (let (($x8813 (= cell_4_1 9)))
 (let (($x9695 (= cell_4_1 8)))
 (let (($x5807 (= cell_4_1 7)))
 (let (($x5132 (= cell_4_1 6)))
 (let (($x1775 (= cell_4_1 5)))
 (let (($x4045 (= cell_4_1 4)))
 (let (($x8278 (= cell_4_1 3)))
 (let (($x8420 (= cell_4_1 2)))
 (let (($x9436 (= cell_4_1 1)))
 (or $x9436 $x8420 $x8278 $x4045 $x1775 $x5132 $x5807 $x9695 $x8813)))))))))))
(assert
 (let (($x5190 (= cell_5_1 9)))
 (let (($x8098 (= cell_5_1 8)))
 (let (($x7388 (= cell_5_1 7)))
 (let (($x8167 (= cell_5_1 6)))
 (let (($x5020 (= cell_5_1 5)))
 (let (($x5085 (= cell_5_1 4)))
 (let (($x4267 (= cell_5_1 3)))
 (let (($x9948 (= cell_5_1 2)))
 (let (($x9225 (= cell_5_1 1)))
 (or $x9225 $x9948 $x4267 $x5085 $x5020 $x8167 $x7388 $x8098 $x5190)))))))))))
(assert
 (let (($x249 (= cell_6_1 9)))
 (let (($x2688 (= cell_6_1 8)))
 (let (($x5743 (= cell_6_1 7)))
 (let (($x10051 (= cell_6_1 6)))
 (let (($x7744 (= cell_6_1 5)))
 (let (($x6608 (= cell_6_1 4)))
 (let (($x4501 (= cell_6_1 3)))
 (let (($x2093 (= cell_6_1 2)))
 (let (($x3151 (= cell_6_1 1)))
 (or $x3151 $x2093 $x4501 $x6608 $x7744 $x10051 $x5743 $x2688 $x249)))))))))))
(assert
 (let (($x8158 (= cell_7_1 9)))
 (let (($x9254 (= cell_7_1 8)))
 (let (($x8503 (= cell_7_1 7)))
 (let (($x1044 (= cell_7_1 6)))
 (let (($x3777 (= cell_7_1 5)))
 (let (($x899 (= cell_7_1 4)))
 (let (($x300 (= cell_7_1 3)))
 (let (($x5045 (= cell_7_1 2)))
 (let (($x2516 (= cell_7_1 1)))
 (or $x2516 $x5045 $x300 $x899 $x3777 $x1044 $x8503 $x9254 $x8158)))))))))))
(assert
 (let (($x9288 (= cell_8_1 9)))
 (let (($x9513 (= cell_8_1 8)))
 (let (($x3917 (= cell_8_1 7)))
 (let (($x6449 (= cell_8_1 6)))
 (let (($x4859 (= cell_8_1 5)))
 (let (($x8125 (= cell_8_1 4)))
 (let (($x10285 (= cell_8_1 3)))
 (let (($x4313 (= cell_8_1 2)))
 (let (($x9910 (= cell_8_1 1)))
 (or $x9910 $x4313 $x10285 $x8125 $x4859 $x6449 $x3917 $x9513 $x9288)))))))))))
(assert
 (let (($x7271 (= cell_9_1 1)))
 (or $x7271 (= cell_9_1 2) (= cell_9_1 3) (= cell_9_1 4) (= cell_9_1 5) (= cell_9_1 6) (= cell_9_1 7) (= cell_9_1 8) (= cell_9_1 9))))
(assert
 (let (($x5325 (= cell_1_2 9)))
 (let (($x5390 (= cell_1_2 8)))
 (let (($x8391 (= cell_1_2 7)))
 (let (($x2867 (= cell_1_2 6)))
 (let (($x6823 (= cell_1_2 5)))
 (let (($x4475 (= cell_1_2 4)))
 (let (($x8902 (= cell_1_2 3)))
 (let (($x4428 (= cell_1_2 2)))
 (let (($x2574 (= cell_1_2 1)))
 (or $x2574 $x4428 $x8902 $x4475 $x6823 $x2867 $x8391 $x5390 $x5325)))))))))))
(assert
 (let (($x3189 (= cell_2_2 9)))
 (let (($x6187 (= cell_2_2 8)))
 (let (($x2245 (= cell_2_2 7)))
 (let (($x9061 (= cell_2_2 6)))
 (let (($x8276 (= cell_2_2 5)))
 (let (($x9957 (= cell_2_2 4)))
 (let (($x9860 (= cell_2_2 3)))
 (let (($x1373 (= cell_2_2 2)))
 (let (($x5083 (= cell_2_2 1)))
 (or $x5083 $x1373 $x9860 $x9957 $x8276 $x9061 $x2245 $x6187 $x3189)))))))))))
(assert
 (let (($x5604 (= cell_3_2 9)))
 (let (($x8429 (= cell_3_2 8)))
 (let (($x5696 (= cell_3_2 7)))
 (let (($x4088 (= cell_3_2 6)))
 (let (($x2494 (= cell_3_2 5)))
 (let (($x192 (= cell_3_2 4)))
 (let (($x10203 (= cell_3_2 3)))
 (let (($x6456 (= cell_3_2 2)))
 (let (($x3708 (= cell_3_2 1)))
 (or $x3708 $x6456 $x10203 $x192 $x2494 $x4088 $x5696 $x8429 $x5604)))))))))))
(assert
 (let (($x9029 (= cell_4_2 1)))
 (or $x9029 (= cell_4_2 2) (= cell_4_2 3) (= cell_4_2 4) (= cell_4_2 5) (= cell_4_2 6) (= cell_4_2 7) (= cell_4_2 8) (= cell_4_2 9))))
(assert
 (let (($x5383 (= cell_5_2 9)))
 (let (($x9415 (= cell_5_2 8)))
 (let (($x2383 (= cell_5_2 7)))
 (let (($x2402 (= cell_5_2 6)))
 (let (($x7897 (= cell_5_2 5)))
 (let (($x8795 (= cell_5_2 4)))
 (let (($x5766 (= cell_5_2 3)))
 (let (($x3718 (= cell_5_2 2)))
 (let (($x9273 (= cell_5_2 1)))
 (or $x9273 $x3718 $x5766 $x8795 $x7897 $x2402 $x2383 $x9415 $x5383)))))))))))
(assert
 (let (($x3598 (= cell_6_2 9)))
 (let (($x7561 (= cell_6_2 8)))
 (let (($x2898 (= cell_6_2 7)))
 (let (($x1891 (= cell_6_2 6)))
 (let (($x6274 (= cell_6_2 5)))
 (let (($x6234 (= cell_6_2 4)))
 (let (($x8180 (= cell_6_2 3)))
 (let (($x2786 (= cell_6_2 2)))
 (let (($x6378 (= cell_6_2 1)))
 (or $x6378 $x2786 $x8180 $x6234 $x6274 $x1891 $x2898 $x7561 $x3598)))))))))))
(assert
 (let (($x960 (= cell_7_2 9)))
 (let (($x3963 (= cell_7_2 8)))
 (let (($x4881 (= cell_7_2 7)))
 (let (($x4447 (= cell_7_2 6)))
 (let (($x6827 (= cell_7_2 5)))
 (let (($x3234 (= cell_7_2 4)))
 (let (($x6731 (= cell_7_2 3)))
 (let (($x3785 (= cell_7_2 2)))
 (let (($x8161 (= cell_7_2 1)))
 (or $x8161 $x3785 $x6731 $x3234 $x6827 $x4447 $x4881 $x3963 $x960)))))))))))
(assert
 (let (($x1061 (= cell_8_2 9)))
 (let (($x5979 (= cell_8_2 8)))
 (let (($x4201 (= cell_8_2 7)))
 (let (($x8216 (= cell_8_2 6)))
 (let (($x10116 (= cell_8_2 5)))
 (let (($x6617 (= cell_8_2 4)))
 (let (($x1894 (= cell_8_2 3)))
 (let (($x5544 (= cell_8_2 2)))
 (let (($x9126 (= cell_8_2 1)))
 (or $x9126 $x5544 $x1894 $x6617 $x10116 $x8216 $x4201 $x5979 $x1061)))))))))))
(assert
 (let (($x302 (= cell_9_2 2)))
 (let (($x6928 (= cell_9_2 1)))
 (or $x6928 $x302 (= cell_9_2 3) (= cell_9_2 4) (= cell_9_2 5) (= cell_9_2 6) (= cell_9_2 7) (= cell_9_2 8) (= cell_9_2 9)))))
(assert
 (let (($x8481 (= cell_1_3 9)))
 (let (($x8414 (= cell_1_3 8)))
 (let (($x796 (= cell_1_3 7)))
 (let (($x4939 (= cell_1_3 6)))
 (let (($x4052 (= cell_1_3 5)))
 (let (($x439 (= cell_1_3 4)))
 (let (($x4731 (= cell_1_3 3)))
 (let (($x1569 (= cell_1_3 2)))
 (let (($x4618 (= cell_1_3 1)))
 (or $x4618 $x1569 $x4731 $x439 $x4052 $x4939 $x796 $x8414 $x8481)))))))))))
(assert
 (let (($x3770 (= cell_2_3 1)))
 (or $x3770 (= cell_2_3 2) (= cell_2_3 3) (= cell_2_3 4) (= cell_2_3 5) (= cell_2_3 6) (= cell_2_3 7) (= cell_2_3 8) (= cell_2_3 9))))
(assert
 (let (($x1451 (= cell_3_3 9)))
 (let (($x4892 (= cell_3_3 8)))
 (let (($x6026 (= cell_3_3 7)))
 (let (($x8150 (= cell_3_3 6)))
 (let (($x3201 (= cell_3_3 5)))
 (let (($x1963 (= cell_3_3 4)))
 (let (($x784 (= cell_3_3 3)))
 (let (($x3477 (= cell_3_3 2)))
 (let (($x4666 (= cell_3_3 1)))
 (or $x4666 $x3477 $x784 $x1963 $x3201 $x8150 $x6026 $x4892 $x1451)))))))))))
(assert
 (let (($x4208 (= cell_4_3 9)))
 (let (($x4947 (= cell_4_3 8)))
 (let (($x638 (= cell_4_3 7)))
 (let (($x9675 (= cell_4_3 6)))
 (let (($x599 (= cell_4_3 5)))
 (let (($x4245 (= cell_4_3 4)))
 (let (($x374 (= cell_4_3 3)))
 (let (($x6529 (= cell_4_3 2)))
 (let (($x3324 (= cell_4_3 1)))
 (or $x3324 $x6529 $x374 $x4245 $x599 $x9675 $x638 $x4947 $x4208)))))))))))
(assert
 (let (($x3591 (= cell_5_3 9)))
 (let (($x5569 (= cell_5_3 8)))
 (let (($x9767 (= cell_5_3 7)))
 (let (($x4117 (= cell_5_3 6)))
 (let (($x3138 (= cell_5_3 5)))
 (let (($x6101 (= cell_5_3 4)))
 (let (($x633 (= cell_5_3 3)))
 (let (($x4029 (= cell_5_3 2)))
 (let (($x7254 (= cell_5_3 1)))
 (or $x7254 $x4029 $x633 $x6101 $x3138 $x4117 $x9767 $x5569 $x3591)))))))))))
(assert
 (let (($x3576 (= cell_6_3 9)))
 (let (($x7363 (= cell_6_3 8)))
 (let (($x1944 (= cell_6_3 7)))
 (let (($x4565 (= cell_6_3 6)))
 (let (($x7860 (= cell_6_3 5)))
 (let (($x4690 (= cell_6_3 4)))
 (let (($x2707 (= cell_6_3 3)))
 (let (($x1772 (= cell_6_3 2)))
 (let (($x4588 (= cell_6_3 1)))
 (or $x4588 $x1772 $x2707 $x4690 $x7860 $x4565 $x1944 $x7363 $x3576)))))))))))
(assert
 (let (($x4699 (= cell_7_3 9)))
 (let (($x5461 (= cell_7_3 8)))
 (let (($x3490 (= cell_7_3 7)))
 (let (($x2956 (= cell_7_3 6)))
 (let (($x4126 (= cell_7_3 5)))
 (let (($x3034 (= cell_7_3 4)))
 (let (($x6765 (= cell_7_3 3)))
 (let (($x1905 (= cell_7_3 2)))
 (let (($x264 (= cell_7_3 1)))
 (or $x264 $x1905 $x6765 $x3034 $x4126 $x2956 $x3490 $x5461 $x4699)))))))))))
(assert
 (let (($x10148 (= cell_8_3 9)))
 (let (($x10034 (= cell_8_3 8)))
 (let (($x4954 (= cell_8_3 7)))
 (let (($x2767 (= cell_8_3 6)))
 (let (($x79 (= cell_8_3 5)))
 (let (($x2992 (= cell_8_3 4)))
 (let (($x8467 (= cell_8_3 3)))
 (let (($x1209 (= cell_8_3 2)))
 (let (($x4247 (= cell_8_3 1)))
 (or $x4247 $x1209 $x8467 $x2992 $x79 $x2767 $x4954 $x10034 $x10148)))))))))))
(assert
 (let (($x1249 (= cell_9_3 1)))
 (or $x1249 (= cell_9_3 2) (= cell_9_3 3) (= cell_9_3 4) (= cell_9_3 5) (= cell_9_3 6) (= cell_9_3 7) (= cell_9_3 8) (= cell_9_3 9))))
(assert
 (let (($x9246 (= cell_1_4 9)))
 (let (($x6380 (= cell_1_4 8)))
 (let (($x4840 (= cell_1_4 7)))
 (let (($x2500 (= cell_1_4 6)))
 (let (($x4152 (= cell_1_4 5)))
 (let (($x6499 (= cell_1_4 4)))
 (let (($x5862 (= cell_1_4 3)))
 (let (($x6095 (= cell_1_4 2)))
 (let (($x5907 (= cell_1_4 1)))
 (or $x5907 $x6095 $x5862 $x6499 $x4152 $x2500 $x4840 $x6380 $x9246)))))))))))
(assert
 (let (($x4654 (= cell_2_4 2)))
 (or (= cell_2_4 1) $x4654 (= cell_2_4 3) (= cell_2_4 4) (= cell_2_4 5) (= cell_2_4 6) (= cell_2_4 7) (= cell_2_4 8) (= cell_2_4 9))))
(assert
 (let (($x8213 (= cell_3_4 9)))
 (let (($x4668 (= cell_3_4 8)))
 (let (($x953 (= cell_3_4 7)))
 (let (($x7212 (= cell_3_4 6)))
 (let (($x7430 (= cell_3_4 5)))
 (let (($x5646 (= cell_3_4 4)))
 (let (($x7 (= cell_3_4 3)))
 (let (($x10099 (= cell_3_4 2)))
 (let (($x9679 (= cell_3_4 1)))
 (or $x9679 $x10099 $x7 $x5646 $x7430 $x7212 $x953 $x4668 $x8213)))))))))))
(assert
 (let (($x3671 (= cell_4_4 9)))
 (let (($x6433 (= cell_4_4 8)))
 (let (($x51 (= cell_4_4 7)))
 (let (($x9441 (= cell_4_4 6)))
 (let (($x2966 (= cell_4_4 5)))
 (let (($x9628 (= cell_4_4 4)))
 (let (($x2594 (= cell_4_4 3)))
 (let (($x9160 (= cell_4_4 2)))
 (let (($x3286 (= cell_4_4 1)))
 (or $x3286 $x9160 $x2594 $x9628 $x2966 $x9441 $x51 $x6433 $x3671)))))))))))
(assert
 (let (($x8760 (= cell_5_4 1)))
 (or $x8760 (= cell_5_4 2) (= cell_5_4 3) (= cell_5_4 4) (= cell_5_4 5) (= cell_5_4 6) (= cell_5_4 7) (= cell_5_4 8) (= cell_5_4 9))))
(assert
 (let (($x9000 (= cell_6_4 9)))
 (let (($x3677 (= cell_6_4 8)))
 (let (($x4627 (= cell_6_4 7)))
 (let (($x5331 (= cell_6_4 6)))
 (let (($x5523 (= cell_6_4 5)))
 (let (($x4087 (= cell_6_4 4)))
 (let (($x7969 (= cell_6_4 3)))
 (let (($x3706 (= cell_6_4 2)))
 (let (($x10127 (= cell_6_4 1)))
 (or $x10127 $x3706 $x7969 $x4087 $x5523 $x5331 $x4627 $x3677 $x9000)))))))))))
(assert
 (let (($x3173 (= cell_7_4 9)))
 (let (($x5586 (= cell_7_4 8)))
 (let (($x379 (= cell_7_4 7)))
 (let (($x3291 (= cell_7_4 6)))
 (let (($x6977 (= cell_7_4 5)))
 (let (($x448 (= cell_7_4 4)))
 (let (($x10209 (= cell_7_4 3)))
 (let (($x588 (= cell_7_4 2)))
 (let (($x6887 (= cell_7_4 1)))
 (or $x6887 $x588 $x10209 $x448 $x6977 $x3291 $x379 $x5586 $x3173)))))))))))
(assert
 (let (($x5849 (= cell_8_4 9)))
 (let (($x1295 (= cell_8_4 8)))
 (let (($x3440 (= cell_8_4 7)))
 (let (($x7000 (= cell_8_4 6)))
 (let (($x2871 (= cell_8_4 5)))
 (let (($x4176 (= cell_8_4 4)))
 (let (($x8050 (= cell_8_4 3)))
 (let (($x1838 (= cell_8_4 2)))
 (let (($x7870 (= cell_8_4 1)))
 (or $x7870 $x1838 $x8050 $x4176 $x2871 $x7000 $x3440 $x1295 $x5849)))))))))))
(assert
 (let (($x1150 (= cell_9_4 2)))
 (let (($x2704 (= cell_9_4 1)))
 (or $x2704 $x1150 (= cell_9_4 3) (= cell_9_4 4) (= cell_9_4 5) (= cell_9_4 6) (= cell_9_4 7) (= cell_9_4 8) (= cell_9_4 9)))))
(assert
 (let (($x1937 (= cell_1_5 9)))
 (let (($x6022 (= cell_1_5 8)))
 (let (($x8352 (= cell_1_5 7)))
 (let (($x1643 (= cell_1_5 6)))
 (let (($x8814 (= cell_1_5 5)))
 (let (($x2391 (= cell_1_5 4)))
 (let (($x7895 (= cell_1_5 3)))
 (let (($x7343 (= cell_1_5 2)))
 (let (($x7464 (= cell_1_5 1)))
 (or $x7464 $x7343 $x7895 $x2391 $x8814 $x1643 $x8352 $x6022 $x1937)))))))))))
(assert
 (let (($x8104 (= cell_2_5 9)))
 (let (($x7479 (= cell_2_5 8)))
 (let (($x10258 (= cell_2_5 7)))
 (let (($x8976 (= cell_2_5 6)))
 (let (($x1473 (= cell_2_5 5)))
 (let (($x2147 (= cell_2_5 4)))
 (let (($x8457 (= cell_2_5 3)))
 (let (($x327 (= cell_2_5 2)))
 (let (($x1962 (= cell_2_5 1)))
 (or $x1962 $x327 $x8457 $x2147 $x1473 $x8976 $x10258 $x7479 $x8104)))))))))))
(assert
 (let (($x5369 (= cell_3_5 9)))
 (let (($x10263 (= cell_3_5 8)))
 (let (($x5055 (= cell_3_5 7)))
 (let (($x9155 (= cell_3_5 6)))
 (let (($x1238 (= cell_3_5 5)))
 (let (($x2527 (= cell_3_5 4)))
 (let (($x7540 (= cell_3_5 3)))
 (let (($x10253 (= cell_3_5 2)))
 (let (($x9917 (= cell_3_5 1)))
 (or $x9917 $x10253 $x7540 $x2527 $x1238 $x9155 $x5055 $x10263 $x5369)))))))))))
(assert
 (let (($x479 (= cell_4_5 9)))
 (let (($x6267 (= cell_4_5 8)))
 (let (($x3326 (= cell_4_5 7)))
 (let (($x842 (= cell_4_5 6)))
 (let (($x4927 (= cell_4_5 5)))
 (let (($x4274 (= cell_4_5 4)))
 (let (($x1907 (= cell_4_5 3)))
 (let (($x4998 (= cell_4_5 2)))
 (let (($x7140 (= cell_4_5 1)))
 (or $x7140 $x4998 $x1907 $x4274 $x4927 $x842 $x3326 $x6267 $x479)))))))))))
(assert
 (let (($x8201 (= cell_5_5 9)))
 (let (($x3903 (= cell_5_5 8)))
 (let (($x5176 (= cell_5_5 7)))
 (let (($x4082 (= cell_5_5 6)))
 (let (($x4205 (= cell_5_5 5)))
 (let (($x5645 (= cell_5_5 4)))
 (let (($x3208 (= cell_5_5 3)))
 (let (($x1996 (= cell_5_5 2)))
 (let (($x3839 (= cell_5_5 1)))
 (or $x3839 $x1996 $x3208 $x5645 $x4205 $x4082 $x5176 $x3903 $x8201)))))))))))
(assert
 (let (($x4067 (= cell_6_5 9)))
 (let (($x8330 (= cell_6_5 8)))
 (let (($x7569 (= cell_6_5 7)))
 (let (($x3587 (= cell_6_5 6)))
 (let (($x6601 (= cell_6_5 5)))
 (let (($x9845 (= cell_6_5 4)))
 (let (($x3191 (= cell_6_5 3)))
 (let (($x3263 (= cell_6_5 2)))
 (let (($x6818 (= cell_6_5 1)))
 (or $x6818 $x3263 $x3191 $x9845 $x6601 $x3587 $x7569 $x8330 $x4067)))))))))))
(assert
 (let (($x3356 (= cell_7_5 9)))
 (let (($x10171 (= cell_7_5 8)))
 (let (($x5742 (= cell_7_5 7)))
 (let (($x9372 (= cell_7_5 6)))
 (let (($x1542 (= cell_7_5 5)))
 (let (($x9091 (= cell_7_5 4)))
 (let (($x6248 (= cell_7_5 3)))
 (let (($x9765 (= cell_7_5 2)))
 (let (($x2582 (= cell_7_5 1)))
 (or $x2582 $x9765 $x6248 $x9091 $x1542 $x9372 $x5742 $x10171 $x3356)))))))))))
(assert
 (let (($x1045 (= cell_8_5 1)))
 (or $x1045 (= cell_8_5 2) (= cell_8_5 3) (= cell_8_5 4) (= cell_8_5 5) (= cell_8_5 6) (= cell_8_5 7) (= cell_8_5 8) (= cell_8_5 9))))
(assert
 (let (($x5924 (= cell_9_5 1)))
 (or $x5924 (= cell_9_5 2) (= cell_9_5 3) (= cell_9_5 4) (= cell_9_5 5) (= cell_9_5 6) (= cell_9_5 7) (= cell_9_5 8) (= cell_9_5 9))))
(assert
 (let (($x9846 (= cell_1_6 1)))
 (or $x9846 (= cell_1_6 2) (= cell_1_6 3) (= cell_1_6 4) (= cell_1_6 5) (= cell_1_6 6) (= cell_1_6 7) (= cell_1_6 8) (= cell_1_6 9))))
(assert
 (let (($x4510 (= cell_2_6 9)))
 (let (($x1732 (= cell_2_6 8)))
 (let (($x7429 (= cell_2_6 7)))
 (let (($x390 (= cell_2_6 6)))
 (let (($x5965 (= cell_2_6 5)))
 (let (($x7308 (= cell_2_6 4)))
 (let (($x2685 (= cell_2_6 3)))
 (let (($x3086 (= cell_2_6 2)))
 (let (($x579 (= cell_2_6 1)))
 (or $x579 $x3086 $x2685 $x7308 $x5965 $x390 $x7429 $x1732 $x4510)))))))))))
(assert
 (let (($x658 (= cell_3_6 9)))
 (let (($x6017 (= cell_3_6 8)))
 (let (($x6478 (= cell_3_6 7)))
 (let (($x2231 (= cell_3_6 6)))
 (let (($x4358 (= cell_3_6 5)))
 (let (($x675 (= cell_3_6 4)))
 (let (($x2370 (= cell_3_6 3)))
 (let (($x5117 (= cell_3_6 2)))
 (let (($x8923 (= cell_3_6 1)))
 (or $x8923 $x5117 $x2370 $x675 $x4358 $x2231 $x6478 $x6017 $x658)))))))))))
(assert
 (let (($x4443 (= cell_4_6 9)))
 (let (($x7494 (= cell_4_6 8)))
 (let (($x2484 (= cell_4_6 7)))
 (let (($x2835 (= cell_4_6 6)))
 (let (($x3602 (= cell_4_6 5)))
 (let (($x2581 (= cell_4_6 4)))
 (let (($x8464 (= cell_4_6 3)))
 (let (($x8242 (= cell_4_6 2)))
 (let (($x4486 (= cell_4_6 1)))
 (or $x4486 $x8242 $x8464 $x2581 $x3602 $x2835 $x2484 $x7494 $x4443)))))))))))
(assert
 (let (($x6609 (= cell_5_6 2)))
 (let (($x4135 (= cell_5_6 1)))
 (or $x4135 $x6609 (= cell_5_6 3) (= cell_5_6 4) (= cell_5_6 5) (= cell_5_6 6) (= cell_5_6 7) (= cell_5_6 8) (= cell_5_6 9)))))
(assert
 (let (($x1830 (= cell_6_6 9)))
 (let (($x229 (= cell_6_6 8)))
 (let (($x5250 (= cell_6_6 7)))
 (let (($x683 (= cell_6_6 6)))
 (let (($x5034 (= cell_6_6 5)))
 (let (($x8507 (= cell_6_6 4)))
 (let (($x4332 (= cell_6_6 3)))
 (let (($x3468 (= cell_6_6 2)))
 (let (($x846 (= cell_6_6 1)))
 (or $x846 $x3468 $x4332 $x8507 $x5034 $x683 $x5250 $x229 $x1830)))))))))))
(assert
 (let (($x5245 (= cell_7_6 9)))
 (let (($x2545 (= cell_7_6 8)))
 (let (($x7773 (= cell_7_6 7)))
 (let (($x6379 (= cell_7_6 6)))
 (let (($x3665 (= cell_7_6 5)))
 (let (($x3739 (= cell_7_6 4)))
 (let (($x763 (= cell_7_6 3)))
 (let (($x8240 (= cell_7_6 2)))
 (let (($x948 (= cell_7_6 1)))
 (or $x948 $x8240 $x763 $x3739 $x3665 $x6379 $x7773 $x2545 $x5245)))))))))))
(assert
 (let (($x3306 (= cell_8_6 1)))
 (or $x3306 (= cell_8_6 2) (= cell_8_6 3) (= cell_8_6 4) (= cell_8_6 5) (= cell_8_6 6) (= cell_8_6 7) (= cell_8_6 8) (= cell_8_6 9))))
(assert
 (let (($x4316 (= cell_9_6 1)))
 (or $x4316 (= cell_9_6 2) (= cell_9_6 3) (= cell_9_6 4) (= cell_9_6 5) (= cell_9_6 6) (= cell_9_6 7) (= cell_9_6 8) (= cell_9_6 9))))
(assert
 (let (($x3418 (= cell_1_7 9)))
 (let (($x3116 (= cell_1_7 8)))
 (let (($x3924 (= cell_1_7 7)))
 (let (($x3464 (= cell_1_7 6)))
 (let (($x7270 (= cell_1_7 5)))
 (let (($x5248 (= cell_1_7 4)))
 (let (($x5759 (= cell_1_7 3)))
 (let (($x8964 (= cell_1_7 2)))
 (let (($x9296 (= cell_1_7 1)))
 (or $x9296 $x8964 $x5759 $x5248 $x7270 $x3464 $x3924 $x3116 $x3418)))))))))))
(assert
 (let (($x6411 (= cell_2_7 9)))
 (let (($x7288 (= cell_2_7 8)))
 (let (($x8361 (= cell_2_7 7)))
 (let (($x347 (= cell_2_7 6)))
 (let (($x2106 (= cell_2_7 5)))
 (let (($x5283 (= cell_2_7 4)))
 (let (($x6587 (= cell_2_7 3)))
 (let (($x1259 (= cell_2_7 2)))
 (let (($x7876 (= cell_2_7 1)))
 (or $x7876 $x1259 $x6587 $x5283 $x2106 $x347 $x8361 $x7288 $x6411)))))))))))
(assert
 (let (($x9012 (= cell_3_7 1)))
 (or $x9012 (= cell_3_7 2) (= cell_3_7 3) (= cell_3_7 4) (= cell_3_7 5) (= cell_3_7 6) (= cell_3_7 7) (= cell_3_7 8) (= cell_3_7 9))))
(assert
 (let (($x3184 (= cell_4_7 9)))
 (let (($x5628 (= cell_4_7 8)))
 (let (($x6316 (= cell_4_7 7)))
 (let (($x4226 (= cell_4_7 6)))
 (let (($x6749 (= cell_4_7 5)))
 (let (($x839 (= cell_4_7 4)))
 (let (($x8973 (= cell_4_7 3)))
 (let (($x4607 (= cell_4_7 2)))
 (let (($x9001 (= cell_4_7 1)))
 (or $x9001 $x4607 $x8973 $x839 $x6749 $x4226 $x6316 $x5628 $x3184)))))))))))
(assert
 (let (($x8143 (= cell_5_7 9)))
 (let (($x6995 (= cell_5_7 8)))
 (let (($x2744 (= cell_5_7 7)))
 (let (($x562 (= cell_5_7 6)))
 (let (($x9557 (= cell_5_7 5)))
 (let (($x4354 (= cell_5_7 4)))
 (let (($x8430 (= cell_5_7 3)))
 (let (($x6493 (= cell_5_7 2)))
 (let (($x7720 (= cell_5_7 1)))
 (or $x7720 $x6493 $x8430 $x4354 $x9557 $x562 $x2744 $x6995 $x8143)))))))))))
(assert
 (let (($x9674 (= cell_6_7 9)))
 (let (($x6783 (= cell_6_7 8)))
 (let (($x7783 (= cell_6_7 7)))
 (let (($x2323 (= cell_6_7 6)))
 (let (($x1347 (= cell_6_7 5)))
 (let (($x1901 (= cell_6_7 4)))
 (let (($x2267 (= cell_6_7 3)))
 (let (($x6686 (= cell_6_7 2)))
 (let (($x6833 (= cell_6_7 1)))
 (or $x6833 $x6686 $x2267 $x1901 $x1347 $x2323 $x7783 $x6783 $x9674)))))))))))
(assert
 (let (($x5140 (= cell_7_7 9)))
 (let (($x5775 (= cell_7_7 8)))
 (let (($x9877 (= cell_7_7 7)))
 (let (($x3387 (= cell_7_7 6)))
 (let (($x9732 (= cell_7_7 5)))
 (let (($x7517 (= cell_7_7 4)))
 (let (($x4650 (= cell_7_7 3)))
 (let (($x2132 (= cell_7_7 2)))
 (let (($x8189 (= cell_7_7 1)))
 (or $x8189 $x2132 $x4650 $x7517 $x9732 $x3387 $x9877 $x5775 $x5140)))))))))))
(assert
 (let (($x7117 (= cell_8_7 1)))
 (or $x7117 (= cell_8_7 2) (= cell_8_7 3) (= cell_8_7 4) (= cell_8_7 5) (= cell_8_7 6) (= cell_8_7 7) (= cell_8_7 8) (= cell_8_7 9))))
(assert
 (let (($x2228 (= cell_9_7 1)))
 (or $x2228 (= cell_9_7 2) (= cell_9_7 3) (= cell_9_7 4) (= cell_9_7 5) (= cell_9_7 6) (= cell_9_7 7) (= cell_9_7 8) (= cell_9_7 9))))
(assert
 (let (($x9013 (= cell_1_8 9)))
 (let (($x5375 (= cell_1_8 8)))
 (let (($x1299 (= cell_1_8 7)))
 (let (($x4174 (= cell_1_8 6)))
 (let (($x8913 (= cell_1_8 5)))
 (let (($x7418 (= cell_1_8 4)))
 (let (($x4454 (= cell_1_8 3)))
 (let (($x1148 (= cell_1_8 2)))
 (let (($x9097 (= cell_1_8 1)))
 (or $x9097 $x1148 $x4454 $x7418 $x8913 $x4174 $x1299 $x5375 $x9013)))))))))))
(assert
 (let (($x6094 (= cell_2_8 9)))
 (let (($x9297 (= cell_2_8 8)))
 (let (($x5541 (= cell_2_8 7)))
 (let (($x4487 (= cell_2_8 6)))
 (let (($x6806 (= cell_2_8 5)))
 (let (($x8934 (= cell_2_8 4)))
 (let (($x3030 (= cell_2_8 3)))
 (let (($x163 (= cell_2_8 2)))
 (let (($x1445 (= cell_2_8 1)))
 (or $x1445 $x163 $x3030 $x8934 $x6806 $x4487 $x5541 $x9297 $x6094)))))))))))
(assert
 (let (($x2157 (= cell_3_8 2)))
 (or (= cell_3_8 1) $x2157 (= cell_3_8 3) (= cell_3_8 4) (= cell_3_8 5) (= cell_3_8 6) (= cell_3_8 7) (= cell_3_8 8) (= cell_3_8 9))))
(assert
 (let (($x6241 (= cell_4_8 9)))
 (let (($x193 (= cell_4_8 8)))
 (let (($x1037 (= cell_4_8 7)))
 (let (($x872 (= cell_4_8 6)))
 (let (($x8355 (= cell_4_8 5)))
 (let (($x971 (= cell_4_8 4)))
 (let (($x5254 (= cell_4_8 3)))
 (let (($x529 (= cell_4_8 2)))
 (let (($x4327 (= cell_4_8 1)))
 (or $x4327 $x529 $x5254 $x971 $x8355 $x872 $x1037 $x193 $x6241)))))))))))
(assert
 (let (($x886 (= cell_5_8 9)))
 (let (($x201 (= cell_5_8 8)))
 (let (($x2654 (= cell_5_8 7)))
 (let (($x6440 (= cell_5_8 6)))
 (let (($x9904 (= cell_5_8 5)))
 (let (($x8849 (= cell_5_8 4)))
 (let (($x6589 (= cell_5_8 3)))
 (let (($x6918 (= cell_5_8 2)))
 (let (($x2964 (= cell_5_8 1)))
 (or $x2964 $x6918 $x6589 $x8849 $x9904 $x6440 $x2654 $x201 $x886)))))))))))
(assert
 (let (($x369 (= cell_6_8 1)))
 (or $x369 (= cell_6_8 2) (= cell_6_8 3) (= cell_6_8 4) (= cell_6_8 5) (= cell_6_8 6) (= cell_6_8 7) (= cell_6_8 8) (= cell_6_8 9))))
(assert
 (let (($x1685 (= cell_7_8 9)))
 (let (($x8412 (= cell_7_8 8)))
 (let (($x8433 (= cell_7_8 7)))
 (let (($x3177 (= cell_7_8 6)))
 (let (($x7488 (= cell_7_8 5)))
 (let (($x3178 (= cell_7_8 4)))
 (let (($x8381 (= cell_7_8 3)))
 (let (($x4212 (= cell_7_8 2)))
 (let (($x396 (= cell_7_8 1)))
 (or $x396 $x4212 $x8381 $x3178 $x7488 $x3177 $x8433 $x8412 $x1685)))))))))))
(assert
 (let (($x7338 (= cell_8_8 2)))
 (let (($x4920 (= cell_8_8 1)))
 (or $x4920 $x7338 (= cell_8_8 3) (= cell_8_8 4) (= cell_8_8 5) (= cell_8_8 6) (= cell_8_8 7) (= cell_8_8 8) (= cell_8_8 9)))))
(assert
 (let (($x6116 (= cell_9_8 2)))
 (let (($x6133 (= cell_9_8 1)))
 (or $x6133 $x6116 (= cell_9_8 3) (= cell_9_8 4) (= cell_9_8 5) (= cell_9_8 6) (= cell_9_8 7) (= cell_9_8 8) (= cell_9_8 9)))))
(assert
 (let (($x5826 (= cell_1_9 9)))
 (let (($x7965 (= cell_1_9 8)))
 (let (($x2243 (= cell_1_9 7)))
 (let (($x4572 (= cell_1_9 6)))
 (let (($x3105 (= cell_1_9 5)))
 (let (($x7557 (= cell_1_9 4)))
 (let (($x7955 (= cell_1_9 3)))
 (let (($x8888 (= cell_1_9 2)))
 (let (($x498 (= cell_1_9 1)))
 (or $x498 $x8888 $x7955 $x7557 $x3105 $x4572 $x2243 $x7965 $x5826)))))))))))
(assert
 (let (($x8421 (= cell_2_9 9)))
 (let (($x8091 (= cell_2_9 8)))
 (let (($x6896 (= cell_2_9 7)))
 (let (($x475 (= cell_2_9 6)))
 (let (($x8905 (= cell_2_9 5)))
 (let (($x2128 (= cell_2_9 4)))
 (let (($x1181 (= cell_2_9 3)))
 (let (($x8950 (= cell_2_9 2)))
 (let (($x7575 (= cell_2_9 1)))
 (or $x7575 $x8950 $x1181 $x2128 $x8905 $x475 $x6896 $x8091 $x8421)))))))))))
(assert
 (let (($x6208 (= cell_3_9 9)))
 (let (($x1623 (= cell_3_9 8)))
 (let (($x5584 (= cell_3_9 7)))
 (let (($x7675 (= cell_3_9 6)))
 (let (($x2177 (= cell_3_9 5)))
 (let (($x8319 (= cell_3_9 4)))
 (let (($x2313 (= cell_3_9 3)))
 (let (($x7701 (= cell_3_9 2)))
 (let (($x9725 (= cell_3_9 1)))
 (or $x9725 $x7701 $x2313 $x8319 $x2177 $x7675 $x5584 $x1623 $x6208)))))))))))
(assert
 (let (($x9640 (= cell_4_9 2)))
 (or (= cell_4_9 1) $x9640 (= cell_4_9 3) (= cell_4_9 4) (= cell_4_9 5) (= cell_4_9 6) (= cell_4_9 7) (= cell_4_9 8) (= cell_4_9 9))))
(assert
 (let (($x5355 (= cell_5_9 9)))
 (let (($x3560 (= cell_5_9 8)))
 (let (($x645 (= cell_5_9 7)))
 (let (($x9108 (= cell_5_9 6)))
 (let (($x4387 (= cell_5_9 5)))
 (let (($x491 (= cell_5_9 4)))
 (let (($x3078 (= cell_5_9 3)))
 (let (($x6113 (= cell_5_9 2)))
 (let (($x7408 (= cell_5_9 1)))
 (or $x7408 $x6113 $x3078 $x491 $x4387 $x9108 $x645 $x3560 $x5355)))))))))))
(assert
 (let (($x5751 (= cell_6_9 9)))
 (let (($x8935 (= cell_6_9 8)))
 (let (($x9936 (= cell_6_9 7)))
 (let (($x5294 (= cell_6_9 6)))
 (let (($x4071 (= cell_6_9 5)))
 (let (($x1443 (= cell_6_9 4)))
 (let (($x5133 (= cell_6_9 3)))
 (let (($x5697 (= cell_6_9 2)))
 (let (($x4675 (= cell_6_9 1)))
 (or $x4675 $x5697 $x5133 $x1443 $x4071 $x5294 $x9936 $x8935 $x5751)))))))))))
(assert
 (let (($x2052 (= cell_7_9 1)))
 (or $x2052 (= cell_7_9 2) (= cell_7_9 3) (= cell_7_9 4) (= cell_7_9 5) (= cell_7_9 6) (= cell_7_9 7) (= cell_7_9 8) (= cell_7_9 9))))
(assert
 (let (($x7089 (= cell_8_9 2)))
 (let (($x9140 (= cell_8_9 1)))
 (or $x9140 $x7089 (= cell_8_9 3) (= cell_8_9 4) (= cell_8_9 5) (= cell_8_9 6) (= cell_8_9 7) (= cell_8_9 8) (= cell_8_9 9)))))
(assert
 (let (($x8246 (= cell_9_9 2)))
 (let (($x3025 (= cell_9_9 1)))
 (or $x3025 $x8246 (= cell_9_9 3) (= cell_9_9 4) (= cell_9_9 5) (= cell_9_9 6) (= cell_9_9 7) (= cell_9_9 8) (= cell_9_9 9)))))
(assert
 (and (distinct cell_1_1 cell_1_2 cell_1_3 cell_1_4 cell_1_5 cell_1_6 cell_1_7 cell_1_8 cell_1_9) true))
(assert
 (and (distinct cell_2_1 cell_2_2 cell_2_3 cell_2_4 cell_2_5 cell_2_6 cell_2_7 cell_2_8 cell_2_9) true))
(assert
 (and (distinct cell_3_1 cell_3_2 cell_3_3 cell_3_4 cell_3_5 cell_3_6 cell_3_7 cell_3_8 cell_3_9) true))
(assert
 (and (distinct cell_4_1 cell_4_2 cell_4_3 cell_4_4 cell_4_5 cell_4_6 cell_4_7 cell_4_8 cell_4_9) true))
(assert
 (and (distinct cell_5_1 cell_5_2 cell_5_3 cell_5_4 cell_5_5 cell_5_6 cell_5_7 cell_5_8 cell_5_9) true))
(assert
 (and (distinct cell_6_1 cell_6_2 cell_6_3 cell_6_4 cell_6_5 cell_6_6 cell_6_7 cell_6_8 cell_6_9) true))
(assert
 (and (distinct cell_7_1 cell_7_2 cell_7_3 cell_7_4 cell_7_5 cell_7_6 cell_7_7 cell_7_8 cell_7_9) true))
(assert
 (and (distinct cell_8_1 cell_8_2 cell_8_3 cell_8_4 cell_8_5 cell_8_6 cell_8_7 cell_8_8 cell_8_9) true))
(assert
 (and (distinct cell_9_1 cell_9_2 cell_9_3 cell_9_4 cell_9_5 cell_9_6 cell_9_7 cell_9_8 cell_9_9) true))
(assert
 (and (distinct cell_1_1 cell_2_1 cell_3_1 cell_4_1 cell_5_1 cell_6_1 cell_7_1 cell_8_1 cell_9_1) true))
(assert
 (and (distinct cell_1_2 cell_2_2 cell_3_2 cell_4_2 cell_5_2 cell_6_2 cell_7_2 cell_8_2 cell_9_2) true))
(assert
 (and (distinct cell_1_3 cell_2_3 cell_3_3 cell_4_3 cell_5_3 cell_6_3 cell_7_3 cell_8_3 cell_9_3) true))
(assert
 (and (distinct cell_1_4 cell_2_4 cell_3_4 cell_4_4 cell_5_4 cell_6_4 cell_7_4 cell_8_4 cell_9_4) true))
(assert
 (and (distinct cell_1_5 cell_2_5 cell_3_5 cell_4_5 cell_5_5 cell_6_5 cell_7_5 cell_8_5 cell_9_5) true))
(assert
 (and (distinct cell_1_6 cell_2_6 cell_3_6 cell_4_6 cell_5_6 cell_6_6 cell_7_6 cell_8_6 cell_9_6) true))
(assert
 (and (distinct cell_1_7 cell_2_7 cell_3_7 cell_4_7 cell_5_7 cell_6_7 cell_7_7 cell_8_7 cell_9_7) true))
(assert
 (and (distinct cell_1_8 cell_2_8 cell_3_8 cell_4_8 cell_5_8 cell_6_8 cell_7_8 cell_8_8 cell_9_8) true))
(assert
 (and (distinct cell_1_9 cell_2_9 cell_3_9 cell_4_9 cell_5_9 cell_6_9 cell_7_9 cell_8_9 cell_9_9) true))
(assert
 (and (distinct cell_1_1 cell_1_2 cell_1_3 cell_2_1 cell_2_2 cell_2_3 cell_3_1 cell_3_2 cell_3_3) true))
(assert
 (and (distinct cell_1_4 cell_1_5 cell_1_6 cell_2_4 cell_2_5 cell_2_6 cell_3_4 cell_3_5 cell_3_6) true))
(assert
 (and (distinct cell_1_7 cell_1_8 cell_1_9 cell_2_7 cell_2_8 cell_2_9 cell_3_7 cell_3_8 cell_3_9) true))
(assert
 (and (distinct cell_4_1 cell_4_2 cell_4_3 cell_5_1 cell_5_2 cell_5_3 cell_6_1 cell_6_2 cell_6_3) true))
(assert
 (and (distinct cell_4_4 cell_4_5 cell_4_6 cell_5_4 cell_5_5 cell_5_6 cell_6_4 cell_6_5 cell_6_6) true))
(assert
 (and (distinct cell_4_7 cell_4_8 cell_4_9 cell_5_7 cell_5_8 cell_5_9 cell_6_7 cell_6_8 cell_6_9) true))
(assert
 (and (distinct cell_7_1 cell_7_2 cell_7_3 cell_8_1 cell_8_2 cell_8_3 cell_9_1 cell_9_2 cell_9_3) true))
(assert
 (and (distinct cell_7_4 cell_7_5 cell_7_6 cell_8_4 cell_8_5 cell_8_6 cell_9_4 cell_9_5 cell_9_6) true))
(assert
 (and (distinct cell_7_7 cell_7_8 cell_7_9 cell_8_7 cell_8_8 cell_8_9 cell_9_7 cell_9_8 cell_9_9) true))
(assert
 (let (($x5434 (and (distinct cell_5_9 cell_6_8 cell_7_7 cell_8_6) true)))
 (let (($x361 (and (distinct cell_2_9 cell_3_8 cell_4_7 cell_5_6 cell_6_5 cell_7_4 cell_8_3 cell_9_2) true)))
 (let (($x5651 (and (distinct cell_1_8 cell_2_7 cell_3_6 cell_4_5 cell_5_4 cell_6_3 cell_7_2 cell_8_1) true)))
 (let (($x1744 (and (distinct cell_1_5 cell_2_4 cell_3_3 cell_4_2) true)))
 (let (($x1218 (and (distinct cell_5_1 cell_6_2 cell_7_3 cell_8_4) true)))
 (let (($x5554 (and (distinct cell_2_1 cell_3_2 cell_4_3 cell_5_4 cell_6_5 cell_7_6 cell_8_7 cell_9_8) true)))
 (let (($x7961 (and (distinct cell_1_2 cell_2_3 cell_3_4 cell_4_5 cell_5_6 cell_6_7 cell_7_8 cell_8_9) true)))
 (let (($x4038 (and (distinct cell_1_5 cell_2_6 cell_3_7 cell_4_8) true)))
 (and $x4038 $x7961 $x5554 $x1218 $x1744 $x5651 $x361 $x5434))))))))))
(assert
 (= cell_5_5 2))
(check-sat)
